(set-info :Origin "This instance was generated by: BanditFuzz-- an RL fuzzer for SMT solvers" )
(set-info :Author "Joe Scott, Fed Mora, Vijay Ganesh" )
(set-info :Contact "Joe Scott, joseph.scott@uwaterloo.ca")
(set-logic QF_BV)
(declare-const bool_0 Bool)
(declare-const bool_1 Bool)
(declare-const bool_2 Bool)
(declare-const bool_3 Bool)
(declare-const bool_4 Bool)
(declare-const bv_0 (_ BitVec 32))
(declare-const bv_1 (_ BitVec 32))
(declare-const bv_2 (_ BitVec 32))
(declare-const bv_3 (_ BitVec 32))
(declare-const bv_4 (_ BitVec 32))
(assert (=> (or (bvuge bv_1 bv_2) (bvult #x730df7fe  #x5cc98617 )) (=> (bvslt bv_3 #xf4e377d2 ) (and bool_1 bool_0))))
(assert (bvule (bvand (bvsdiv #x40254d62  #x72222c90 ) (bvsdiv bv_0 #x5e64bd83 )) (bvadd (bvsdiv bv_3 bv_1) (bvsrem bv_2 bv_0))))
(assert (and (not (or true bool_3)) (and (bvsge bv_0 bv_4) (bvsge bv_2 bv_2))))
(assert (xor (bvsgt (bvor bv_4 #xdc695560 ) (bvmul #xe85249cd  #xd34fdc29 )) (or (bvult bv_2 bv_0) (xor bool_0 bool_1))))
(assert (bvsgt (bvor (bvxor #xc1aa578c  #xfbf1efd8 ) (bvsrem bv_4 bv_2)) (bvashr (bvxnor bv_3 #x595a186b ) (bvmul #x76decf39  bv_0))))
(check-sat)
(exit)
